; benchmark generated from python API
(set-info :status unknown)
(declare-fun return () (_ BitVec 32))
(declare-fun rdi () (_ BitVec 64))
(declare-fun rsi () (_ BitVec 64))
(assert
 (let (($x643 (= (_ bv0 32) return)))
 (let ((?x6 ((_ extract 31 0) rdi)))
 (let (($x62 (bvsgt (_ bv1 32) ?x6)))
 (let (($x696 (and $x62 $x643)))
 (let ((?x8 ((_ extract 31 0) rsi)))
 (let (($x694 (= return ?x8)))
 (let (($x489 (bvsle (_ bv1 32) ?x6)))
 (let (($x226 (bvsgt (_ bv2 32) ?x6)))
 (let (($x695 (and $x226 $x489 $x694)))
 (let ((?x87 (bvmul (_ bv2 32) ?x8)))
 (let (($x692 (= return ?x87)))
 (let (($x142 (bvsle (_ bv2 32) ?x6)))
 (let (($x200 (bvsgt (_ bv3 32) ?x6)))
 (let (($x693 (and $x200 $x142 $x489 $x692)))
 (let ((?x185 (bvmul (_ bv3 32) ?x8)))
 (let (($x690 (= return ?x185)))
 (let (($x81 (bvsle (_ bv3 32) ?x6)))
 (let (($x29 (bvsgt (_ bv4 32) ?x6)))
 (let (($x691 (and $x29 $x81 $x142 $x489 $x690)))
 (let ((?x16 (bvmul (_ bv4 32) ?x8)))
 (let (($x688 (= return ?x16)))
 (let (($x123 (bvsle (_ bv4 32) ?x6)))
 (let (($x91 (bvsgt (_ bv5 32) ?x6)))
 (let (($x689 (and $x91 $x123 $x81 $x142 $x489 $x688)))
 (let ((?x93 (bvmul (_ bv5 32) ?x8)))
 (let (($x686 (= return ?x93)))
 (let (($x19 (bvsle (_ bv5 32) ?x6)))
 (let (($x104 (bvsgt (_ bv6 32) ?x6)))
 (let (($x687 (and $x104 $x19 $x123 $x81 $x142 $x489 $x686)))
 (let ((?x106 (bvmul (_ bv6 32) ?x8)))
 (let (($x684 (= return ?x106)))
 (let (($x228 (bvsle (_ bv6 32) ?x6)))
 (let (($x118 (bvsgt (_ bv7 32) ?x6)))
 (let (($x685 (and $x118 $x228 $x19 $x123 $x81 $x142 $x489 $x684)))
 (let ((?x120 (bvmul (_ bv7 32) ?x8)))
 (let (($x682 (= return ?x120)))
 (let (($x113 (bvsle (_ bv7 32) ?x6)))
 (let (($x161 (bvsgt (_ bv8 32) ?x6)))
 (let (($x683 (and $x161 $x113 $x228 $x19 $x123 $x81 $x142 $x489 $x682)))
 (let ((?x177 (bvmul (_ bv8 32) ?x8)))
 (let (($x680 (= return ?x177)))
 (let (($x131 (bvsle (_ bv8 32) ?x6)))
 (let (($x234 (bvsgt (_ bv9 32) ?x6)))
 (let (($x681 (and $x234 $x131 $x113 $x228 $x19 $x123 $x81 $x142 $x489 $x680)))
 (let ((?x235 (bvmul (_ bv9 32) ?x8)))
 (let (($x678 (= return ?x235)))
 (let (($x190 (bvsle (_ bv9 32) ?x6)))
 (let (($x313 (bvsgt (_ bv10 32) ?x6)))
 (let (($x679 (and $x313 $x190 $x131 $x113 $x228 $x19 $x123 $x81 $x142 $x489 $x678)))
 (let ((?x326 (bvmul (_ bv10 32) ?x8)))
 (let (($x676 (= return ?x326)))
 (let (($x282 (bvsle (_ bv10 32) ?x6)))
 (let (($x399 (bvsgt (_ bv11 32) ?x6)))
 (let (($x677 (and $x399 $x282 $x190 $x131 $x113 $x228 $x19 $x123 $x81 $x142 $x489 $x676)))
 (let ((?x401 (bvmul (_ bv11 32) ?x8)))
 (let (($x674 (= return ?x401)))
 (let (($x364 (bvsle (_ bv11 32) ?x6)))
 (let (($x468 (bvsgt (_ bv12 32) ?x6)))
 (let (($x675 (and $x468 $x364 $x282 $x190 $x131 $x113 $x228 $x19 $x123 $x81 $x142 $x489 $x674)))
 (let ((?x423 (bvmul (_ bv12 32) ?x8)))
 (let (($x672 (= return ?x423)))
 (let (($x436 (bvsle (_ bv12 32) ?x6)))
 (let (($x440 (bvsgt (_ bv13 32) ?x6)))
 (let (($x673 (and $x440 $x436 $x364 $x282 $x190 $x131 $x113 $x228 $x19 $x123 $x81 $x142 $x489 $x672)))
 (let ((?x469 (bvmul (_ bv13 32) ?x8)))
 (let (($x670 (= return ?x469)))
 (let (($x484 (bvsle (_ bv13 32) ?x6)))
 (let (($x274 (bvsgt (_ bv14 32) ?x6)))
 (let (($x671 (and $x274 $x484 $x436 $x364 $x282 $x190 $x131 $x113 $x228 $x19 $x123 $x81 $x142 $x489 $x670)))
 (let ((?x457 (bvmul (_ bv14 32) ?x8)))
 (let (($x668 (= return ?x457)))
 (let (($x284 (bvsle (_ bv14 32) ?x6)))
 (let (($x316 (bvsgt (_ bv15 32) ?x6)))
 (let (($x669 (and $x316 $x284 $x484 $x436 $x364 $x282 $x190 $x131 $x113 $x228 $x19 $x123 $x81 $x142 $x489 $x668)))
 (let ((?x286 (bvmul (_ bv15 32) ?x8)))
 (let (($x666 (= return ?x286)))
 (let (($x207 (bvsle (_ bv15 32) ?x6)))
 (let (($x130 (bvsgt (_ bv16 32) ?x6)))
 (let (($x667 (and $x130 $x207 $x284 $x484 $x436 $x364 $x282 $x190 $x131 $x113 $x228 $x19 $x123 $x81 $x142 $x489 $x666)))
 (let ((?x331 (bvmul (_ bv16 32) ?x8)))
 (let (($x664 (= return ?x331)))
 (let (($x128 (bvsle (_ bv16 32) ?x6)))
 (let (($x269 (bvsgt (_ bv17 32) ?x6)))
 (let (($x665 (and $x269 $x128 $x207 $x284 $x484 $x436 $x364 $x282 $x190 $x131 $x113 $x228 $x19 $x123 $x81 $x142 $x489 $x664)))
 (let ((?x34 (bvmul (_ bv17 32) ?x8)))
 (let (($x662 (= return ?x34)))
 (let (($x36 (bvsle (_ bv17 32) ?x6)))
 (let (($x288 (bvsgt (_ bv18 32) ?x6)))
 (let (($x663 (and $x288 $x36 $x128 $x207 $x284 $x484 $x436 $x364 $x282 $x190 $x131 $x113 $x228 $x19 $x123 $x81 $x142 $x489 $x662)))
 (let ((?x44 (bvmul (_ bv18 32) ?x8)))
 (let (($x660 (= return ?x44)))
 (let (($x346 (bvsle (_ bv18 32) ?x6)))
 (let (($x149 (bvsgt (_ bv19 32) ?x6)))
 (let (($x661 (and $x149 $x346 $x36 $x128 $x207 $x284 $x484 $x436 $x364 $x282 $x190 $x131 $x113 $x228 $x19 $x123 $x81 $x142 $x489 $x660)))
 (let ((?x303 (bvmul (_ bv19 32) ?x8)))
 (let (($x658 (= return ?x303)))
 (let (($x217 (bvsle (_ bv19 32) ?x6)))
 (let (($x493 (bvsgt (_ bv20 32) ?x6)))
 (let (($x659 (and $x493 $x217 $x346 $x36 $x128 $x207 $x284 $x484 $x436 $x364 $x282 $x190 $x131 $x113 $x228 $x19 $x123 $x81 $x142 $x489 $x658)))
 (let ((?x209 (bvmul (_ bv20 32) ?x8)))
 (let (($x656 (= return ?x209)))
 (let (($x402 (bvsle (_ bv20 32) ?x6)))
 (let (($x510 (bvsgt (_ bv21 32) ?x6)))
 (let (($x657 (and $x510 $x402 $x217 $x346 $x36 $x128 $x207 $x284 $x484 $x436 $x364 $x282 $x190 $x131 $x113 $x228 $x19 $x123 $x81 $x142 $x489 $x656)))
 (let ((?x492 (bvmul (_ bv21 32) ?x8)))
 (let (($x654 (= return ?x492)))
 (let (($x502 (bvsle (_ bv21 32) ?x6)))
 (let (($x526 (bvsgt (_ bv22 32) ?x6)))
 (let (($x655 (and $x526 $x502 $x402 $x217 $x346 $x36 $x128 $x207 $x284 $x484 $x436 $x364 $x282 $x190 $x131 $x113 $x228 $x19 $x123 $x81 $x142 $x489 $x654)))
 (let ((?x508 (bvmul (_ bv22 32) ?x8)))
 (let (($x652 (= return ?x508)))
 (let (($x520 (bvsle (_ bv22 32) ?x6)))
 (let (($x544 (bvsgt (_ bv23 32) ?x6)))
 (let (($x653 (and $x544 $x520 $x502 $x402 $x217 $x346 $x36 $x128 $x207 $x284 $x484 $x436 $x364 $x282 $x190 $x131 $x113 $x228 $x19 $x123 $x81 $x142 $x489 $x652)))
 (let ((?x525 (bvmul (_ bv23 32) ?x8)))
 (let (($x650 (= return ?x525)))
 (let (($x536 (bvsle (_ bv23 32) ?x6)))
 (let (($x560 (bvsgt (_ bv24 32) ?x6)))
 (let (($x651 (and $x560 $x536 $x520 $x502 $x402 $x217 $x346 $x36 $x128 $x207 $x284 $x484 $x436 $x364 $x282 $x190 $x131 $x113 $x228 $x19 $x123 $x81 $x142 $x489 $x650)))
 (let ((?x542 (bvmul (_ bv24 32) ?x8)))
 (let (($x648 (= return ?x542)))
 (let (($x554 (bvsle (_ bv24 32) ?x6)))
 (let (($x574 (bvsgt (_ bv25 32) ?x6)))
 (let (($x649 (and $x574 $x554 $x536 $x520 $x502 $x402 $x217 $x346 $x36 $x128 $x207 $x284 $x484 $x436 $x364 $x282 $x190 $x131 $x113 $x228 $x19 $x123 $x81 $x142 $x489 $x648)))
 (let ((?x558 (bvmul (_ bv25 32) ?x8)))
 (let (($x646 (= return ?x558)))
 (let (($x568 (bvsle (_ bv25 32) ?x6)))
 (let (($x588 (bvsgt (_ bv26 32) ?x6)))
 (let (($x647 (and $x588 $x568 $x554 $x536 $x520 $x502 $x402 $x217 $x346 $x36 $x128 $x207 $x284 $x484 $x436 $x364 $x282 $x190 $x131 $x113 $x228 $x19 $x123 $x81 $x142 $x489 $x646)))
 (let (($x697 (or $x647 $x649 $x651 $x653 $x655 $x657 $x659 $x661 $x663 $x665 $x667 $x669 $x671 $x673 $x675 $x677 $x679 $x681 $x683 $x685 $x687 $x689 $x691 $x693 $x695 $x696)))
 (let (($x700 (not $x697)))
 (let (($x41 (bvsgt (_ bv1 32) ?x8)))
 (let (($x644 (and $x41 $x643)))
 (let (($x641 (= return ?x6)))
 (let (($x13 (bvsle (_ bv1 32) ?x8)))
 (let (($x129 (bvsgt (_ bv2 32) ?x8)))
 (let (($x642 (and $x129 $x13 $x641)))
 (let ((?x38 (bvmul (_ bv2 32) ?x6)))
 (let (($x639 (= return ?x38)))
 (let (($x54 (bvsle (_ bv2 32) ?x8)))
 (let (($x136 (bvsgt (_ bv3 32) ?x8)))
 (let (($x640 (and $x136 $x54 $x13 $x639)))
 (let ((?x137 (bvmul (_ bv3 32) ?x6)))
 (let (($x637 (= return ?x137)))
 (let (($x40 (bvsle (_ bv3 32) ?x8)))
 (let (($x151 (bvsgt (_ bv4 32) ?x8)))
 (let (($x638 (and $x151 $x40 $x54 $x13 $x637)))
 (let ((?x154 (bvmul (_ bv4 32) ?x6)))
 (let (($x635 (= return ?x154)))
 (let (($x146 (bvsle (_ bv4 32) ?x8)))
 (let (($x166 (bvsgt (_ bv5 32) ?x8)))
 (let (($x636 (and $x166 $x146 $x40 $x54 $x13 $x635)))
 (let ((?x150 (bvmul (_ bv5 32) ?x6)))
 (let (($x633 (= return ?x150)))
 (let (($x158 (bvsle (_ bv5 32) ?x8)))
 (let (($x183 (bvsgt (_ bv6 32) ?x8)))
 (let (($x634 (and $x183 $x158 $x146 $x40 $x54 $x13 $x633)))
 (let ((?x164 (bvmul (_ bv6 32) ?x6)))
 (let (($x631 (= return ?x164)))
 (let (($x175 (bvsle (_ bv6 32) ?x8)))
 (let (($x194 (bvsgt (_ bv7 32) ?x8)))
 (let (($x632 (and $x194 $x175 $x158 $x146 $x40 $x54 $x13 $x631)))
 (let ((?x181 (bvmul (_ bv7 32) ?x6)))
 (let (($x629 (= return ?x181)))
 (let (($x186 (bvsle (_ bv7 32) ?x8)))
 (let (($x208 (bvsgt (_ bv8 32) ?x8)))
 (let (($x630 (and $x208 $x186 $x175 $x158 $x146 $x40 $x54 $x13 $x629)))
 (let ((?x192 (bvmul (_ bv8 32) ?x6)))
 (let (($x627 (= return ?x192)))
 (let (($x201 (bvsle (_ bv8 32) ?x8)))
 (let (($x221 (bvsgt (_ bv9 32) ?x8)))
 (let (($x628 (and $x221 $x201 $x186 $x175 $x158 $x146 $x40 $x54 $x13 $x627)))
 (let ((?x206 (bvmul (_ bv9 32) ?x6)))
 (let (($x625 (= return ?x206)))
 (let (($x213 (bvsle (_ bv9 32) ?x8)))
 (let (($x239 (bvsgt (_ bv10 32) ?x8)))
 (let (($x626 (and $x239 $x213 $x201 $x186 $x175 $x158 $x146 $x40 $x54 $x13 $x625)))
 (let ((?x219 (bvmul (_ bv10 32) ?x6)))
 (let (($x623 (= return ?x219)))
 (let (($x231 (bvsle (_ bv10 32) ?x8)))
 (let (($x256 (bvsgt (_ bv11 32) ?x8)))
 (let (($x624 (and $x256 $x231 $x213 $x201 $x186 $x175 $x158 $x146 $x40 $x54 $x13 $x623)))
 (let ((?x236 (bvmul (_ bv11 32) ?x6)))
 (let (($x621 (= return ?x236)))
 (let (($x248 (bvsle (_ bv11 32) ?x8)))
 (let (($x271 (bvsgt (_ bv12 32) ?x8)))
 (let (($x622 (and $x271 $x248 $x231 $x213 $x201 $x186 $x175 $x158 $x146 $x40 $x54 $x13 $x621)))
 (let ((?x254 (bvmul (_ bv12 32) ?x6)))
 (let (($x619 (= return ?x254)))
 (let (($x265 (bvsle (_ bv12 32) ?x8)))
 (let (($x287 (bvsgt (_ bv13 32) ?x8)))
 (let (($x620 (and $x287 $x265 $x248 $x231 $x213 $x201 $x186 $x175 $x158 $x146 $x40 $x54 $x13 $x619)))
 (let ((?x270 (bvmul (_ bv13 32) ?x6)))
 (let (($x617 (= return ?x270)))
 (let (($x279 (bvsle (_ bv13 32) ?x8)))
 (let (($x301 (bvsgt (_ bv14 32) ?x8)))
 (let (($x618 (and $x301 $x279 $x265 $x248 $x231 $x213 $x201 $x186 $x175 $x158 $x146 $x40 $x54 $x13 $x617)))
 (let ((?x285 (bvmul (_ bv14 32) ?x6)))
 (let (($x615 (= return ?x285)))
 (let (($x295 (bvsle (_ bv14 32) ?x8)))
 (let (($x317 (bvsgt (_ bv15 32) ?x8)))
 (let (($x616 (and $x317 $x295 $x279 $x265 $x248 $x231 $x213 $x201 $x186 $x175 $x158 $x146 $x40 $x54 $x13 $x615)))
 (let ((?x300 (bvmul (_ bv15 32) ?x6)))
 (let (($x613 (= return ?x300)))
 (let (($x309 (bvsle (_ bv15 32) ?x8)))
 (let (($x330 (bvsgt (_ bv16 32) ?x8)))
 (let (($x614 (and $x330 $x309 $x295 $x279 $x265 $x248 $x231 $x213 $x201 $x186 $x175 $x158 $x146 $x40 $x54 $x13 $x613)))
 (let ((?x315 (bvmul (_ bv16 32) ?x6)))
 (let (($x611 (= return ?x315)))
 (let (($x325 (bvsle (_ bv16 32) ?x8)))
 (let (($x344 (bvsgt (_ bv17 32) ?x8)))
 (let (($x612 (and $x344 $x325 $x309 $x295 $x279 $x265 $x248 $x231 $x213 $x201 $x186 $x175 $x158 $x146 $x40 $x54 $x13 $x611)))
 (let ((?x329 (bvmul (_ bv17 32) ?x6)))
 (let (($x609 (= return ?x329)))
 (let (($x336 (bvsle (_ bv17 32) ?x8)))
 (let (($x314 (bvsgt (_ bv18 32) ?x8)))
 (let (($x610 (and $x314 $x336 $x325 $x309 $x295 $x279 $x265 $x248 $x231 $x213 $x201 $x186 $x175 $x158 $x146 $x40 $x54 $x13 $x609)))
 (let ((?x342 (bvmul (_ bv18 32) ?x6)))
 (let (($x607 (= return ?x342)))
 (let (($x353 (bvsle (_ bv18 32) ?x8)))
 (let (($x370 (bvsgt (_ bv19 32) ?x8)))
 (let (($x608 (and $x370 $x353 $x336 $x325 $x309 $x295 $x279 $x265 $x248 $x231 $x213 $x201 $x186 $x175 $x158 $x146 $x40 $x54 $x13 $x607)))
 (let ((?x360 (bvmul (_ bv19 32) ?x6)))
 (let (($x605 (= return ?x360)))
 (let (($x362 (bvsle (_ bv19 32) ?x8)))
 (let (($x387 (bvsgt (_ bv20 32) ?x8)))
 (let (($x606 (and $x387 $x362 $x353 $x336 $x325 $x309 $x295 $x279 $x265 $x248 $x231 $x213 $x201 $x186 $x175 $x158 $x146 $x40 $x54 $x13 $x605)))
 (let ((?x368 (bvmul (_ bv20 32) ?x6)))
 (let (($x603 (= return ?x368)))
 (let (($x379 (bvsle (_ bv20 32) ?x8)))
 (let (($x405 (bvsgt (_ bv21 32) ?x8)))
 (let (($x604 (and $x405 $x379 $x362 $x353 $x336 $x325 $x309 $x295 $x279 $x265 $x248 $x231 $x213 $x201 $x186 $x175 $x158 $x146 $x40 $x54 $x13 $x603)))
 (let ((?x386 (bvmul (_ bv21 32) ?x6)))
 (let (($x601 (= return ?x386)))
 (let (($x397 (bvsle (_ bv21 32) ?x8)))
 (let (($x422 (bvsgt (_ bv22 32) ?x8)))
 (let (($x602 (and $x422 $x397 $x379 $x362 $x353 $x336 $x325 $x309 $x295 $x279 $x265 $x248 $x231 $x213 $x201 $x186 $x175 $x158 $x146 $x40 $x54 $x13 $x601)))
 (let ((?x403 (bvmul (_ bv22 32) ?x6)))
 (let (($x599 (= return ?x403)))
 (let (($x414 (bvsle (_ bv22 32) ?x8)))
 (let (($x441 (bvsgt (_ bv23 32) ?x8)))
 (let (($x600 (and $x441 $x414 $x397 $x379 $x362 $x353 $x336 $x325 $x309 $x295 $x279 $x265 $x248 $x231 $x213 $x201 $x186 $x175 $x158 $x146 $x40 $x54 $x13 $x599)))
 (let ((?x421 (bvmul (_ bv23 32) ?x6)))
 (let (($x597 (= return ?x421)))
 (let (($x433 (bvsle (_ bv23 32) ?x8)))
 (let (($x458 (bvsgt (_ bv24 32) ?x8)))
 (let (($x598 (and $x458 $x433 $x414 $x397 $x379 $x362 $x353 $x336 $x325 $x309 $x295 $x279 $x265 $x248 $x231 $x213 $x201 $x186 $x175 $x158 $x146 $x40 $x54 $x13 $x597)))
 (let ((?x439 (bvmul (_ bv24 32) ?x6)))
 (let (($x595 (= return ?x439)))
 (let (($x450 (bvsle (_ bv24 32) ?x8)))
 (let (($x473 (bvsgt (_ bv25 32) ?x8)))
 (let (($x596 (and $x473 $x450 $x433 $x414 $x397 $x379 $x362 $x353 $x336 $x325 $x309 $x295 $x279 $x265 $x248 $x231 $x213 $x201 $x186 $x175 $x158 $x146 $x40 $x54 $x13 $x595)))
 (let ((?x456 (bvmul (_ bv25 32) ?x6)))
 (let (($x593 (= return ?x456)))
 (let (($x465 (bvsle (_ bv25 32) ?x8)))
 (let (($x488 (bvsgt (_ bv26 32) ?x8)))
 (let (($x594 (and $x488 $x465 $x450 $x433 $x414 $x397 $x379 $x362 $x353 $x336 $x325 $x309 $x295 $x279 $x265 $x248 $x231 $x213 $x201 $x186 $x175 $x158 $x146 $x40 $x54 $x13 $x593)))
 (let (($x645 (or $x594 $x596 $x598 $x600 $x602 $x604 $x606 $x608 $x610 $x612 $x614 $x616 $x618 $x620 $x622 $x624 $x626 $x628 $x630 $x632 $x634 $x636 $x638 $x640 $x642 $x644)))
 (let (($x699 (not $x645)))
 (let (($x701 (and $x699 $x700)))
 (let (($x698 (and $x645 $x697)))
 (let (($x702 (or $x698 $x701)))
 (not $x702))))))))))))))))))))))))))))))))))))))))))))))))))))))))))))))))))))))))))))))))))))))))))))))))))))))))))))))))))))))))))))))))))))))))))))))))))))))))))))))))))))))))))))))))))))))))))))))))))))))))))))))))))))))))))))))))))))))))))))))))))))))))))))))))))))))))
(check-sat)
